\ENCODING=ISO-8859-1
\Problem name: 

Maximize
 obj1: 4 y0 + 0.6667 y1 + 1.44116 y2 + 1.9998 y3 + 4.70592 y4
Subject To
 pinv0:     - y0 + y7 + y8  = 0
 pinv1:     - y1 + y5  = 0
 pinv2:     - y3 + y5  = 0
 pinv3:     - y4 + y6  = 0
 pinv4:     - y2 + y6  = 0
 pinv5:     y0 - y5 - y6  = 0
 pinv6:     y1 - y7  = 0
 pinv7:     y3 - y7  = 0
 pinv8:     y2 - y8  = 0
 pinv9:     y4 - y8  = 0
 inimark10: y0  = 1
End
